n = 15;
clue = [| 10, 12, 15, 14, 11, 13,  1,  9,  1,  4,  7,  3,  6,  2,  5
 |  8, 15, 12, 13,  1,  2,  6,  4,  5,  7, 12,  9, 15,  3,  7
 | 15, 14, 11,  8, 12, 11,  3, 14,  4,  3,  6,  6,  7,  5,  8
 |  3, 11, 13, 15,  6, 14,  5, 12,  6,  6, 10,  7,  8, 15,  9
 | 13, 14, 14, 11, 15,  7, 12,  1,  7, 10,  4,  8,  9,  6,  3
 |  1,  2, 12,  4, 14, 15, 13, 13,  9,  8,  9, 13, 11,  7, 10
 |  3,  3,  3,  5,  9, 12, 15, 14, 13,  9, 11, 10, 14,  8,  7
 |  2,  9,  4, 12, 13,  1, 14, 13, 15,  8,  8,  3, 10,  9, 11
 |  3,  4,  5,  8,  5,  9, 13, 15, 13, 14, 12, 11,  6, 10,  8
 |  1,  9, 10, 11,  6,  9,  7,  4, 14, 10, 15,  4, 13, 11, 12
 |  5,  6,  6,  7, 10, 11,  3,  8,  9, 15,  9, 14, 12, 11, 13
 |  7,  6,  9,  3,  8, 10, 11, 10,  4, 13, 14,  2, 15, 12,  8
 |  6,  1,  7,  9,  5, 10,  8,  2, 12, 11, 14, 15, 15, 13, 14
 |  4,  5,  7,  6,  7,  8,  9, 11, 10, 14, 13, 12, 14, 15,  5
 | 13,  7,  8, 12,  9,  9, 10,  6, 11, 12, 13, 13,  1, 14, 15
 |];

